50
25498

483 137
743 964
296 340
642 886
738 764
746 859
976 191
899 95
778 440
900 481
179 288
703 95
567 199
907 873
832 244
37 785
946 386
984 336
38 463
322 788
828 326
28 94
668 506
483 424
149 133
685 977
586 104
514 264
754 42
961 302
848 90
796 938
491 742
100 776
381 812
671 152
752 503
204 877
118 836
759 657
109 457
272 868
637 561
912 896
306 879
126 537
646 837
452 956
653 904
443 131
